# Solution for model FSG
# Objective value = 2.1693921900803102e+03
x_0_1 0
x_0_2 0
x_0_3 0
x_0_4 0
x_0_5 1
x_0_6 1
x_0_7 0
x_0_8 0
x_0_9 0
x_1_2 0
x_1_3 0
x_1_4 0
x_1_5 0
x_1_6 0
x_1_7 1
x_1_8 0
x_1_9 0
x_2_1 0
x_2_3 0
x_2_4 0
x_2_5 0
x_2_6 0
x_2_7 0
x_2_8 1
x_2_9 0
x_3_1 0
x_3_2 1
x_3_4 0
x_3_5 0
x_3_6 0
x_3_7 0
x_3_8 0
x_3_9 0
x_4_1 1
x_4_2 0
x_4_3 0
x_4_5 0
x_4_6 0
x_4_7 0
x_4_8 0
x_4_9 0
x_5_1 0
x_5_2 0
x_5_3 1
x_5_4 0
x_5_6 0
x_5_7 0
x_5_8 0
x_5_9 0
x_6_1 0
x_6_2 0
x_6_3 0
x_6_4 1
x_6_5 0
x_6_7 0
x_6_8 0
x_6_9 0
x_7_1 0
x_7_2 0
x_7_3 0
x_7_4 0
x_7_5 0
x_7_6 0
x_7_8 0
x_7_9 1
U_1_1 0
U_1_2 1
U_1_3 0
U_2_1 0
U_2_2 0
U_2_3 1
U_3_1 0
U_3_2 0
U_3_3 1
U_4_1 0
U_4_2 1
U_4_3 0
U_5_1 0
U_5_2 1
U_5_3 0
U_6_1 0
U_6_2 1
U_6_3 0
U_7_1 0
U_7_2 0
U_7_3 1
U_8_1 0
U_8_2 0
U_8_3 1
U_9_1 0
U_9_2 0
U_9_3 1
TBar_0 0
TBar_1 2.6028845082817114e+01
TBar_2 3.6170072933118377e+01
TBar_3 30
TBar_4 2.3276936654108049e+01
TBar_5 15
TBar_6 15
TBar_7 3.5759004382643610e+01
TBar_8 4.3889101369391945e+01
TBar_9 45
y_0_1_1 0
y_0_1_2 0
y_0_1_3 0
y_0_1_4 0
y_0_1_5 0
y_0_2_1 0
y_0_2_2 0
y_0_2_3 0
y_0_2_4 0
y_0_2_5 0
y_0_3_1 0
y_0_3_2 0
y_0_3_3 0
y_0_3_4 0
y_0_3_5 0
y_0_4_1 0
y_0_4_2 0
y_0_4_3 0
y_0_4_4 0
y_0_4_5 0
y_0_5_1 0
y_0_5_2 0
y_0_5_3 0
y_0_5_4 0
y_0_5_5 0
y_0_6_1 0
y_0_6_2 0
y_0_6_3 0
y_0_6_4 0
y_0_6_5 0
y_0_7_1 0
y_0_7_2 0
y_0_7_3 0
y_0_7_4 0
y_0_7_5 0
y_0_8_1 0
y_0_8_2 0
y_0_8_3 0
y_0_8_4 0
y_0_8_5 0
y_0_9_1 0
y_0_9_2 0
y_0_9_3 0
y_0_9_4 0
y_0_9_5 0
y_1_2_1 0
y_1_2_2 0
y_1_2_3 0
y_1_2_4 0
y_1_2_5 0
y_1_3_1 0
y_1_3_2 0
y_1_3_3 0
y_1_3_4 0
y_1_3_5 0
y_1_4_1 0
y_1_4_2 0
y_1_4_3 0
y_1_4_4 0
y_1_4_5 0
y_1_5_1 0
y_1_5_2 0
y_1_5_3 0
y_1_5_4 0
y_1_5_5 0
y_1_6_1 0
y_1_6_2 0
y_1_6_3 0
y_1_6_4 0
y_1_6_5 0
y_1_7_1 1
y_1_7_2 1
y_1_7_3 1
y_1_7_4 1
y_1_7_5 1
y_1_8_1 0
y_1_8_2 0
y_1_8_3 0
y_1_8_4 0
y_1_8_5 0
y_1_9_1 0
y_1_9_2 0
y_1_9_3 0
y_1_9_4 0
y_1_9_5 0
y_2_1_1 0
y_2_1_2 0
y_2_1_3 0
y_2_1_4 0
y_2_1_5 0
y_2_3_1 0
y_2_3_2 0
y_2_3_3 0
y_2_3_4 0
y_2_3_5 0
y_2_4_1 0
y_2_4_2 0
y_2_4_3 0
y_2_4_4 0
y_2_4_5 0
y_2_5_1 0
y_2_5_2 0
y_2_5_3 0
y_2_5_4 0
y_2_5_5 0
y_2_6_1 0
y_2_6_2 0
y_2_6_3 0
y_2_6_4 0
y_2_6_5 0
y_2_7_1 0
y_2_7_2 0
y_2_7_3 0
y_2_7_4 0
y_2_7_5 0
y_2_8_1 1
y_2_8_2 1
y_2_8_3 1
y_2_8_4 1
y_2_8_5 1
y_2_9_1 0
y_2_9_2 0
y_2_9_3 0
y_2_9_4 0
y_2_9_5 0
y_3_1_1 0
y_3_1_2 0
y_3_1_3 0
y_3_1_4 0
y_3_1_5 0
y_3_2_1 0
y_3_2_2 0
y_3_2_3 1
y_3_2_4 0
y_3_2_5 0
y_3_4_1 0
y_3_4_2 0
y_3_4_3 0
y_3_4_4 0
y_3_4_5 0
y_3_5_1 0
y_3_5_2 0
y_3_5_3 0
y_3_5_4 0
y_3_5_5 0
y_3_6_1 0
y_3_6_2 0
y_3_6_3 0
y_3_6_4 0
y_3_6_5 0
y_3_7_1 0
y_3_7_2 0
y_3_7_3 0
y_3_7_4 0
y_3_7_5 0
y_3_8_1 0
y_3_8_2 0
y_3_8_3 0
y_3_8_4 0
y_3_8_5 0
y_3_9_1 0
y_3_9_2 0
y_3_9_3 0
y_3_9_4 0
y_3_9_5 0
y_4_1_1 0
y_4_1_2 0
y_4_1_3 0
y_4_1_4 0
y_4_1_5 1
y_4_2_1 0
y_4_2_2 0
y_4_2_3 0
y_4_2_4 0
y_4_2_5 0
y_4_3_1 0
y_4_3_2 0
y_4_3_3 0
y_4_3_4 0
y_4_3_5 0
y_4_5_1 0
y_4_5_2 0
y_4_5_3 0
y_4_5_4 0
y_4_5_5 0
y_4_6_1 0
y_4_6_2 0
y_4_6_3 0
y_4_6_4 0
y_4_6_5 0
y_4_7_1 0
y_4_7_2 0
y_4_7_3 0
y_4_7_4 0
y_4_7_5 0
y_4_8_1 0
y_4_8_2 0
y_4_8_3 0
y_4_8_4 0
y_4_8_5 0
y_4_9_1 0
y_4_9_2 0
y_4_9_3 0
y_4_9_4 0
y_4_9_5 0
y_5_1_1 0
y_5_1_2 0
y_5_1_3 0
y_5_1_4 0
y_5_1_5 0
y_5_2_1 0
y_5_2_2 0
y_5_2_3 0
y_5_2_4 0
y_5_2_5 0
y_5_3_1 0
y_5_3_2 0
y_5_3_3 0
y_5_3_4 0
y_5_3_5 0
y_5_4_1 0
y_5_4_2 0
y_5_4_3 0
y_5_4_4 0
y_5_4_5 0
y_5_6_1 0
y_5_6_2 0
y_5_6_3 0
y_5_6_4 0
y_5_6_5 0
y_5_7_1 0
y_5_7_2 0
y_5_7_3 0
y_5_7_4 0
y_5_7_5 0
y_5_8_1 0
y_5_8_2 0
y_5_8_3 0
y_5_8_4 0
y_5_8_5 0
y_5_9_1 0
y_5_9_2 0
y_5_9_3 0
y_5_9_4 0
y_5_9_5 0
y_6_1_1 0
y_6_1_2 0
y_6_1_3 0
y_6_1_4 0
y_6_1_5 0
y_6_2_1 0
y_6_2_2 0
y_6_2_3 0
y_6_2_4 0
y_6_2_5 0
y_6_3_1 0
y_6_3_2 0
y_6_3_3 0
y_6_3_4 0
y_6_3_5 0
y_6_4_1 0
y_6_4_2 0
y_6_4_3 0
y_6_4_4 0
y_6_4_5 0
y_6_5_1 0
y_6_5_2 0
y_6_5_3 0
y_6_5_4 0
y_6_5_5 0
y_6_7_1 0
y_6_7_2 0
y_6_7_3 0
y_6_7_4 0
y_6_7_5 0
y_6_8_1 0
y_6_8_2 0
y_6_8_3 0
y_6_8_4 0
y_6_8_5 0
y_6_9_1 0
y_6_9_2 0
y_6_9_3 0
y_6_9_4 0
y_6_9_5 0
y_7_1_1 0
y_7_1_2 0
y_7_1_3 0
y_7_1_4 0
y_7_1_5 0
y_7_2_1 0
y_7_2_2 0
y_7_2_3 0
y_7_2_4 0
y_7_2_5 0
y_7_3_1 0
y_7_3_2 0
y_7_3_3 0
y_7_3_4 0
y_7_3_5 0
y_7_4_1 0
y_7_4_2 0
y_7_4_3 0
y_7_4_4 0
y_7_4_5 0
y_7_5_1 0
y_7_5_2 0
y_7_5_3 0
y_7_5_4 0
y_7_5_5 0
y_7_6_1 0
y_7_6_2 0
y_7_6_3 0
y_7_6_4 0
y_7_6_5 0
y_7_8_1 0
y_7_8_2 0
y_7_8_3 0
y_7_8_4 0
y_7_8_5 0
y_7_9_1 1
y_7_9_2 1
y_7_9_3 1
y_7_9_4 1
y_7_9_5 1
Q_0_1 0
Q_0_2 0
Q_0_3 0
Q_0_4 0
Q_0_5 0
Q_1_1 1.2750500000000012e+02
Q_1_2 1.3367000000000007e+02
Q_1_3 1.3691500000000008e+02
Q_1_4 1.3589000000000007e+02
Q_1_5 1.5766000000000008e+02
Q_2_1 150.6
Q_2_2 1.4966500000000022e+02
Q_2_3 168.8
Q_2_4 1.6448000000000022e+02
Q_2_5 1.6489000000000021e+02
Q_3_1 8.4270000000000081e+01
Q_3_2 8.5795000000000073e+01
Q_3_3 1.0011500000000001e+02
Q_3_4 9.1465000000000074e+01
Q_3_5 8.8765000000000072e+01
Q_4_1 8.8885000000000360e+01
Q_4_2 8.3770000000000351e+01
Q_4_3 86.9
Q_4_4 8.5680000000000362e+01
Q_4_5 1.0694000000000037e+02
Q_5_1 3.8475000000000655e+01
Q_5_2 4.3575000000000657e+01
Q_5_3 4.7915000000000653e+01
Q_5_4 5.2185000000000656e+01
Q_5_5 4.7930000000000653e+01
Q_6_1 5.6805000000000291e+01
Q_6_2 5.4505000000000287e+01
Q_6_3 5.1965000000000288e+01
Q_6_4 56.3
Q_6_5 7.1310000000000286e+01
Q_7_1 2.1691499999999945e+02
Q_7_2 2.2198999999999944e+02
Q_7_3 2.3316999999999945e+02
Q_7_4 2.2782999999999942e+02
Q_7_5 2.6880999999999943e+02
Q_8_1 150.6
Q_8_2 1.4966500000000022e+02
Q_8_3 168.8
Q_8_4 1.6448000000000022e+02
Q_8_5 1.6489000000000021e+02
Q_9_1 2.1691499999999945e+02
Q_9_2 2.2198999999999944e+02
Q_9_3 2.3316999999999945e+02
Q_9_4 2.2782999999999942e+02
Q_9_5 2.6880999999999943e+02
R_8_1 50.6
R_8_2 4.9665000000000219e+01
R_8_3 68.8
R_8_4 6.4480000000000217e+01
R_8_5 6.4890000000000214e+01
R_9_1 1.1691499999999945e+02
R_9_2 1.2198999999999944e+02
R_9_3 1.3316999999999945e+02
R_9_4 1.2782999999999942e+02
R_9_5 1.6880999999999943e+02
L_1_1 6.9
L_1_2 2.935
L_1_3 5.53
L_1_4 5.86
L_1_5 5.03
L_2_1 0
L_2_2 0
L_2_3 0
L_2_4 0
L_2_5 0
L_3_1 0
L_3_2 0
L_3_3 0
L_3_4 0
L_3_5 0
L_4_1 5.575
L_4_2 3.685
L_4_3 4.155
L_4_4 3.39
L_4_5 4.795
L_5_1 4.55
L_5_2 7.215
L_5_3 5.605
L_5_4 6.59
L_5_5 3.965
L_6_1 4.315
L_6_2 3.95
L_6_3 2.985
L_6_4 7.41
L_6_5 4.62
L_7_1 0
L_7_2 0
L_7_3 0
L_7_4 0
L_7_5 0
rho_1_1 1
rho_1_2 1
rho_1_3 1
rho_1_4 1
rho_1_5 1
rho_2_1 1
rho_2_2 1
rho_2_3 1
rho_2_4 1
rho_2_5 1
rho_3_1 0
rho_3_2 0
rho_3_3 1
rho_3_4 0
rho_3_5 0
rho_4_1 0
rho_4_2 0
rho_4_3 0
rho_4_4 0
rho_4_5 1
rho_5_1 0
rho_5_2 0
rho_5_3 0
rho_5_4 0
rho_5_5 0
rho_6_1 0
rho_6_2 0
rho_6_3 0
rho_6_4 0
rho_6_5 0
rho_7_1 1
rho_7_2 1
rho_7_3 1
rho_7_4 1
rho_7_5 1
lambd_1_1 0
lambd_1_2 0
lambd_1_3 0
lambd_1_4 0
lambd_1_5 0
lambd_2_1 0
lambd_2_2 0
lambd_2_3 0
lambd_2_4 0
lambd_2_5 0
lambd_3_1 0
lambd_3_2 0
lambd_3_3 0
lambd_3_4 0
lambd_3_5 0
lambd_4_1 0
lambd_4_2 0
lambd_4_3 0
lambd_4_4 0
lambd_4_5 0
lambd_5_1 0
lambd_5_2 0
lambd_5_3 0
lambd_5_4 0
lambd_5_5 0
lambd_6_1 0
lambd_6_2 0
lambd_6_3 0
lambd_6_4 0
lambd_6_5 0
lambd_7_1 0
lambd_7_2 0
lambd_7_3 0
lambd_7_4 0
lambd_7_5 0
alpha_1_1 1
alpha_1_2 1
alpha_1_3 1
alpha_1_4 1
alpha_1_5 0
alpha_2_1 1
alpha_2_2 1
alpha_2_3 0
alpha_2_4 1
alpha_2_5 1
alpha_3_1 0
alpha_3_2 0
alpha_3_3 1
alpha_3_4 0
alpha_3_5 0
alpha_4_1 0
alpha_4_2 0
alpha_4_3 0
alpha_4_4 0
alpha_4_5 1
alpha_5_1 0
alpha_5_2 0
alpha_5_3 0
alpha_5_4 0
alpha_5_5 0
alpha_6_1 0
alpha_6_2 0
alpha_6_3 0
alpha_6_4 0
alpha_6_5 0
alpha_7_1 0
alpha_7_2 0
alpha_7_3 0
alpha_7_4 0
alpha_7_5 0
